NAME : temp
TYPE : TSP
COMMENT : temp
DIMENSION :  4 
EDGE_WEIGHT_TYPE : EXPLICIT
EDGE_DATA_FORMAT : EDGE_LIST
NODE_COORD_TYPE :  NO_COORDS
EDGE_DATA_SECTION : 
0 1
1 2
2 3
3 0
-1
EDGE_WEIGHT_SECTION : 
0 1 10
1 2 40
2 3 70
3 0 50
